p cnf 67 183
-22 9 0
-22 10 0
22 -10 -9 0
-21 9 0
-21 -10 0
21 10 -9 0
-25 9 0
-25 10 0
25 -10 -9 0
-24 9 0
-24 -10 0
24 10 -9 0
-27 9 0
-27 10 0
27 -10 -9 0
-28 9 0
-28 -10 0
28 10 -9 0
-23 1 0
-23 22 0
-23 32 0
23 -22 -32 -1 0
-26 2 0
-26 25 0
-26 42 0
26 -25 -42 -2 0
-29 4 0
-29 28 0
-29 47 0
29 -28 -47 -4 0
-30 4 0
-30 28 0
-30 65 0
30 -28 -65 -4 0
-32 11 0
-32 12 0
32 -12 -11 0
-31 11 0
-31 -12 0
31 12 -11 0
-34 11 0
-34 12 0
34 -12 -11 0
-33 11 0
-33 -12 0
33 12 -11 0
-36 11 0
-36 12 0
36 -12 -11 0
-37 11 0
-37 -12 0
37 12 -11 0
-38 5 0
-38 37 0
-38 40 0
38 -37 -40 -5 0
-35 3 0
-35 34 0
-35 58 0
35 -34 -58 -3 0
-40 13 0
-40 14 0
40 -14 -13 0
-39 13 0
-39 -14 0
39 14 -13 0
-42 13 0
-42 14 0
42 -14 -13 0
-41 13 0
-41 -14 0
41 14 -13 0
-43 13 0
-43 14 0
43 -14 -13 0
-44 13 0
-44 -14 0
44 14 -13 0
-45 6 0
-45 44 0
-45 50 0
45 -44 -50 -6 0
-47 15 0
-47 16 0
47 -16 -15 0
-46 15 0
-46 -16 0
46 16 -15 0
-50 15 0
-50 16 0
50 -16 -15 0
-49 15 0
-49 -16 0
49 16 -15 0
-51 15 0
-51 16 0
51 -16 -15 0
-52 15 0
-52 -16 0
52 16 -15 0
-53 8 0
-53 52 0
-53 60 0
53 -52 -60 -8 0
-48 4 0
-48 47 0
-48 65 0
48 -47 -65 -4 0
-55 17 0
-55 18 0
55 -18 -17 0
-54 17 0
-54 -18 0
54 18 -17 0
-58 17 0
-58 18 0
58 -18 -17 0
-57 17 0
-57 -18 0
57 18 -17 0
-59 17 0
-59 18 0
59 -18 -17 0
-60 17 0
-60 -18 0
60 18 -17 0
-56 7 0
-56 55 0
-56 67 0
56 -55 -67 -7 0
61 -20 -19 -4 0
-61 4 0
-61 20 0
-61 19 0
-64 0
-65 19 0
-65 20 0
65 -20 -19 0
-66 19 0
-66 20 0
66 -20 -19 0
-67 19 0
-67 -20 0
67 20 -19 0
-1 21 31 0
-1 22 32 0
-1 -21 -31 0
-2 24 41 0
-2 25 42 0
-2 -24 -41 0
-3 33 57 0
-3 34 58 0
-3 -33 -57 0
-4 27 46 64 0
-4 28 47 65 0
-4 -27 -46 0
-4 -27 -64 0
-4 -46 -64 0
-5 36 39 0
-5 37 40 0
-5 -36 -39 0
-6 43 49 0
-6 44 50 0
-6 -43 -49 0
-7 54 66 0
-7 55 67 0
-7 -54 -66 0
-8 51 59 0
-8 52 60 0
-8 -51 -59 0
-9 1 2 0
-9 4 0
-11 1 3 0
-11 5 0
-13 5 2 0
-13 6 0
-15 4 6 0
-15 8 0
-17 7 3 0
-17 8 0
-19 4 4 0
-19 7 0
56 61 45 35 38 30 29 26 53 48 23 0
